NAME : local_10
TYPE : ATSP
DIMENSION : 10
EDGE_WEIGHT_TYPE : EXPLICIT
EDGE_WEIGHT_FORMAT : FULL_MATRIX
EDGE_WEIGHT_SECTION
0 1043 1053 676 887 932 751 254 633 617 
0 0 241 507 10000000 166 442 10000000 10000000 10000000 
0 241 0 620 10000000 220 345 10000000 10000000 10000000 
0 507 620 0 10000000 412 446 925 10000000 818 
0 10000000 10000000 10000000 0 10000000 10000000 779 251 814 
0 166 220 412 10000000 0 284 10000000 10000000 10000000 
0 442 345 446 10000000 284 0 947 10000000 10000000 
0 10000000 10000000 925 779 10000000 947 0 545 715 
0 10000000 10000000 10000000 251 10000000 10000000 545 0 767 
0 10000000 10000000 10000000 10000000 10000000 10000000 10000000 10000000 0 
EOF